% demand
num_movements = 18;
loading_factor = [1000, 1200, 1550, 850, 1800, 1950, 1600, 950, 950, 1050, 1600, 1850, 950, 1050, 1150, 1550, 1250, 1700];
pickup_time = [0, 0, 0, 0, 1, 1, 1, 3, 4, 4, 5, 6, 6, 7, 7, 8, 8, 9];
delivery_time = [1, 1, 1, 1, 2, 3, 3, 4, 10, 9, 7, 8, 9, 8, 9, 10, 10, 10];

% transporter definition
total_capacity = 7000;
num_decks = 3;
capacity = [3000, 1000, 3000];

% ways out of decks
num_ways_out = 1;
paths_out = array3d(decks, ways_out, decks, [
% ways out of deck d1
2, 3, 0, 

% ways out of deck d2
3, 0, 0, 

% ways out of deck d3
0, 0, 0,	

]);

